NAME 
ROWS
 N  OBJ
 L  R0      
 L  R1      
 E  R2      
 E  R3      
 E  R4      
 E  R5      
 E  R6      
 E  R7      
 E  R8      
 E  R9      
 E  R10     
 E  R11     
 E  R12     
 E  R13     
 E  R14     
 E  R15     
 E  R16     
 E  R17     
 E  R18     
 E  R19     
 E  R20     
 E  R21     
COLUMNS
    MARKER    'MARKER'                 'INTORG'
    I0(9)     OBJ       -108
    I0(9)     R0        -26
    I0(9)     R1        99
    I0(9)     R3        11
    I0(9)     R4        16
    I0(9)     R5        -1
    I0(9)     R6        5
    I0(9)     R8        17
    I0(9)     R9        15
    I0(9)     R21       1
    I1(13)    OBJ       190
    I1(13)    R0        172
    I1(13)    R1        -43
    I1(13)    R2        16
    I1(13)    R3        6
    I1(13)    R4        -1
    I1(13)    R5        16
    I1(13)    R6        6
    I1(13)    R7        15
    I1(13)    R8        9
    I1(13)    R9        15
    I1(13)    R10       12
    I1(13)    R11       2
    I1(13)    R21       1
    I2(12)    OBJ       111
    I2(12)    R0        29
    I2(12)    R1        105
    I2(12)    R2        7
    I2(12)    R3        5
    I2(12)    R4        14
    I2(12)    R5        19
    I2(12)    R6        11
    I2(12)    R8        3
    I2(12)    R9        11
    I2(12)    R10       11
    I2(12)    R11       6
    I2(12)    R21       1
    I3(12)    OBJ       131
    I3(12)    R0        65
    I3(12)    R1        -195
    I3(12)    R2        13
    I3(12)    R3        7
    I3(12)    R4        -1
    I3(12)    R5        17
    I3(12)    R6        12
    I3(12)    R7        12
    I3(12)    R8        2
    I3(12)    R9        12
    I3(12)    R11       15
    I3(12)    R21       1
    I4(11)    OBJ       9
    I4(11)    R0        -137
    I4(11)    R1        -43
    I4(11)    R2        16
    I4(11)    R3        1
    I4(11)    R4        11
    I4(11)    R5        4
    I4(11)    R7        5
    I4(11)    R8        16
    I4(11)    R10       7
    I4(11)    R11       19
    I4(11)    R21       1
    I5(11)    OBJ       -17
    I5(11)    R0        161
    I5(11)    R1        108
    I5(11)    R2        7
    I5(11)    R3        16
    I5(11)    R4        1
    I5(11)    R5        10
    I5(11)    R7        2
    I5(11)    R8        14
    I5(11)    R10       2
    I5(11)    R11       2
    I5(11)    R21       1
    I6(11)    OBJ       6
    I6(11)    R0        169
    I6(11)    R1        143
    I6(11)    R2        7
    I6(11)    R3        14
    I6(11)    R4        5
    I6(11)    R6        5
    I6(11)    R7        7
    I6(11)    R8        -1
    I6(11)    R10       2
    I6(11)    R11       1
    I6(11)    R21       1
    I7(11)    OBJ       18
    I7(11)    R0        -14
    I7(11)    R1        136
    I7(11)    R3        7
    I7(11)    R4        19
    I7(11)    R5        3
    I7(11)    R6        19
    I7(11)    R7        16
    I7(11)    R8        6
    I7(11)    R9        11
    I7(11)    R10       14
    I7(11)    R21       1
    I8(11)    OBJ       171
    I8(11)    R0        45
    I8(11)    R1        -132
    I8(11)    R2        10
    I8(11)    R3        11
    I8(11)    R4        18
    I8(11)    R5        15
    I8(11)    R6        13
    I8(11)    R7        14
    I8(11)    R10       9
    I8(11)    R11       2
    I8(11)    R21       1
    I9(10)    OBJ       119
    I9(10)    R0        17
    I9(10)    R1        -24
    I9(10)    R2        12
    I9(10)    R3        3
    I9(10)    R4        14
    I9(10)    R5        7
    I9(10)    R7        1
    I9(10)    R8        13
    I9(10)    R10       9
    I9(10)    R21       1
    MARKER    'MARKER'                 'INTEND'
    C10(17)   OBJ       -2
    C10(17)   R0        2
    C10(17)   R1        4
    C10(17)   R2        19
    C10(17)   R3        13
    C10(17)   R4        10
    C10(17)   R5        15
    C10(17)   R7        1
    C10(17)   R8        16
    C10(17)   R9        10
    C10(17)   R10       17
    C10(17)   R11       1
    C10(17)   R12       18
    C10(17)   R14       18
    C10(17)   R15       17
    C10(17)   R17       8
    C10(17)   R18       1
    C10(17)   R20       14
    C11(16)   OBJ       -2
    C11(16)   R0        -4
    C11(16)   R1        8
    C11(16)   R2        16
    C11(16)   R3        13
    C11(16)   R5        3
    C11(16)   R6        14
    C11(16)   R7        19
    C11(16)   R8        17
    C11(16)   R9        5
    C11(16)   R10       7
    C11(16)   R13       14
    C11(16)   R15       8
    C11(16)   R17       15
    C11(16)   R18       1
    C11(16)   R19       3
    C11(16)   R20       2
    C12(14)   OBJ       3
    C12(14)   R0        9
    C12(14)   R1        3
    C12(14)   R2        11
    C12(14)   R4        16
    C12(14)   R6        13
    C12(14)   R8        8
    C12(14)   R11       16
    C12(14)   R12       10
    C12(14)   R13       5
    C12(14)   R14       17
    C12(14)   R15       11
    C12(14)   R16       12
    C12(14)   R19       4
    C12(14)   R20       19
    C13(17)   OBJ       -1
    C13(17)   R0        6
    C13(17)   R1        -4
    C13(17)   R2        9
    C13(17)   R4        14
    C13(17)   R5        14
    C13(17)   R6        17
    C13(17)   R7        17
    C13(17)   R11       16
    C13(17)   R12       9
    C13(17)   R13       5
    C13(17)   R14       11
    C13(17)   R15       2
    C13(17)   R16       -1
    C13(17)   R17       4
    C13(17)   R18       2
    C13(17)   R19       19
    C13(17)   R20       9
    C14(19)   OBJ       -7
    C14(19)   R0        2
    C14(19)   R1        -10
    C14(19)   R2        10
    C14(19)   R3        5
    C14(19)   R4        5
    C14(19)   R5        1
    C14(19)   R6        16
    C14(19)   R7        19
    C14(19)   R8        5
    C14(19)   R9        18
    C14(19)   R10       9
    C14(19)   R11       15
    C14(19)   R12       -1
    C14(19)   R13       10
    C14(19)   R15       15
    C14(19)   R16       7
    C14(19)   R18       11
    C14(19)   R19       2
    C14(19)   R20       9
    C15(17)   OBJ       4
    C15(17)   R0        4
    C15(17)   R1        6
    C15(17)   R2        9
    C15(17)   R3        3
    C15(17)   R4        3
    C15(17)   R5        2
    C15(17)   R6        9
    C15(17)   R7        9
    C15(17)   R8        15
    C15(17)   R9        1
    C15(17)   R10       7
    C15(17)   R12       5
    C15(17)   R14       3
    C15(17)   R15       3
    C15(17)   R17       5
    C15(17)   R18       8
    C15(17)   R20       6
    C16(17)   OBJ       -8
    C16(17)   R0        -8
    C16(17)   R1        4
    C16(17)   R2        1
    C16(17)   R3        18
    C16(17)   R4        10
    C16(17)   R5        18
    C16(17)   R6        13
    C16(17)   R7        9
    C16(17)   R9        -1
    C16(17)   R12       7
    C16(17)   R13       17
    C16(17)   R14       11
    C16(17)   R16       17
    C16(17)   R17       9
    C16(17)   R18       16
    C16(17)   R19       2
    C16(17)   R20       1
    C17(16)   OBJ       -9
    C17(16)   R0        6
    C17(16)   R1        9
    C17(16)   R3        19
    C17(16)   R4        11
    C17(16)   R5        7
    C17(16)   R6        17
    C17(16)   R7        9
    C17(16)   R8        2
    C17(16)   R10       12
    C17(16)   R11       19
    C17(16)   R13       17
    C17(16)   R14       2
    C17(16)   R17       2
    C17(16)   R18       10
    C17(16)   R19       17
    C17(16)   R20       2
    C18(18)   R0        8
    C18(18)   R1        4
    C18(18)   R2        13
    C18(18)   R3        -1
    C18(18)   R4        7
    C18(18)   R5        14
    C18(18)   R6        18
    C18(18)   R7        10
    C18(18)   R8        16
    C18(18)   R9        3
    C18(18)   R10       2
    C18(18)   R11       5
    C18(18)   R12       9
    C18(18)   R13       15
    C18(18)   R15       18
    C18(18)   R16       11
    C18(18)   R17       14
    C18(18)   R20       14
    C19(18)   OBJ       -2
    C19(18)   R0        2
    C19(18)   R1        -7
    C19(18)   R3        15
    C19(18)   R4        15
    C19(18)   R5        6
    C19(18)   R6        17
    C19(18)   R8        19
    C19(18)   R9        16
    C19(18)   R10       18
    C19(18)   R11       15
    C19(18)   R13       19
    C19(18)   R14       7
    C19(18)   R15       10
    C19(18)   R16       14
    C19(18)   R17       17
    C19(18)   R18       15
    C19(18)   R19       11
    C19(18)   R20       7
    C20(1)    R2        1
    C21(1)    R3        1
    C22(1)    R4        1
    C23(1)    R5        1
    C24(1)    R6        1
    C25(1)    R7        1
    C26(1)    R8        1
    C27(1)    R9        1
    C28(1)    R10       1
    C29(1)    R11       1
    C30(1)    R12       1
    C31(1)    R13       1
    C32(1)    R14       1
    C33(1)    R15       1
    C34(1)    R16       1
    C35(1)    R17       1
    C36(1)    R18       1
    C37(1)    R19       1
    C38(1)    R20       1
    C39(1)    R21       1
RHS
    RHS1      R0        1.0893684210526317e+02
    RHS1      R1        2.1832631578947368e+02
    RHS1      R2        97
    RHS1      R3        90
    RHS1      R4        51
    RHS1      R5        79
    RHS1      R6        51
    RHS1      R7        79
    RHS1      R8        78
    RHS1      R9        52
    RHS1      R10       50
    RHS1      R11       73
    RHS1      R12       97
    RHS1      R13       66
    RHS1      R14       77
    RHS1      R15       71
    RHS1      R16       83
    RHS1      R17       76
    RHS1      R18       87
    RHS1      R19       58
    RHS1      R20       59
    RHS1      R21       3
BOUNDS
 UP BND1      I0(9)     1
 UP BND1      I1(13)    1
 UP BND1      I2(12)    1
 UP BND1      I3(12)    1
 UP BND1      I4(11)    1
 UP BND1      I5(11)    1
 UP BND1      I6(11)    1
 UP BND1      I7(11)    1
 UP BND1      I8(11)    1
 UP BND1      I9(10)    1
ENDATA
